(set-info :Origin "This instance was generated by: BanditFuzz-- an RL fuzzer for SMT solvers" )
(set-info :Author "Joe Scott, Fed Mora, Vijay Ganesh" )
(set-info :Contact "Joe Scott, joseph.scott@uwaterloo.ca")
(set-logic QF_BV)
(declare-const bool_0 Bool)
(declare-const bool_1 Bool)
(declare-const bool_2 Bool)
(declare-const bool_3 Bool)
(declare-const bool_4 Bool)
(declare-const bv_0 (_ BitVec 32))
(declare-const bv_1 (_ BitVec 32))
(declare-const bv_2 (_ BitVec 32))
(declare-const bv_3 (_ BitVec 32))
(declare-const bv_4 (_ BitVec 32))
(assert (bvslt (bvmul (bvor #x02a2ae67  bv_3) (bvudiv #x5c16dd91  bv_1)) (bvxnor (bvlshr #x818ffaf1  bv_2) (bvlshr bv_0 bv_4))))
(assert (bvuge (bvurem (bvsmod bv_1 bv_1) (bvlshr #x5b8764d8  #x39a969de )) (bvsmod (bvashr bv_3 #x8172912d ) (bvshl #x20c00fda  bv_0))))
(assert (bvsle (bvxor (bvxor #x36ff177a  bv_4) (bvadd bv_1 bv_3)) (bvand (bvashr bv_2 #x96cb5338 ) (bvxnor bv_2 #xdfb16c5b ))))
(assert (bvslt (bvurem (bvxor #x780bac11  bv_2) (bvshl #x79778291  #x8bf2f8ab )) (bvshl (bvsrem bv_3 #xfd94de33 ) (bvlshr bv_2 bv_4))))
(assert (bvsgt (bvmul (bvor bv_2 #x2388db7e ) (bvashr bv_0 bv_1)) (bvxor (bvmul #xc9dd7ecd  #x0fef6993 ) (bvnand #xadb11c3d  bv_0))))
(check-sat)
(exit)
